formal/invaders_proof/model/design_smt2.smt2
; SMT-LIBv2 description generated by Yosys 0.8+143 (git sha1 c82aa49, clang 3.8.0-2ubuntu4 -fPIC -Os)
; yosys-smt2-module $paramod/timer_1us/PERIOD=100000
(declare-sort |$paramod/timer_1us/PERIOD=100000_s| 0)
(declare-fun |$paramod/timer_1us/PERIOD=100000_is| (|$paramod/timer_1us/PERIOD=100000_s|) Bool)
; yosys-smt2-output o_q 1
; yosys-smt2-register o_q 1
; yosys-smt2-wire o_q 1
(declare-fun |$paramod/timer_1us/PERIOD=100000#0| (|$paramod/timer_1us/PERIOD=100000_s|) (_ BitVec 1)) ; \o_q
(define-fun |$paramod/timer_1us/PERIOD=100000_n o_q| ((state |$paramod/timer_1us/PERIOD=100000_s|)) Bool (= ((_ extract 0 0) (|$paramod/timer_1us/PERIOD=100000#0| state)) #b1))
; yosys-smt2-input i_reset 1
; yosys-smt2-wire i_reset 1
(declare-fun |$paramod/timer_1us/PERIOD=100000#1| (|$paramod/timer_1us/PERIOD=100000_s|) Bool) ; \i_reset
(define-fun |$paramod/timer_1us/PERIOD=100000_n i_reset| ((state |$paramod/timer_1us/PERIOD=100000_s|)) Bool (|$paramod/timer_1us/PERIOD=100000#1| state))
; yosys-smt2-input i_clk_25MHz 1
; yosys-smt2-wire i_clk_25MHz 1
; yosys-smt2-clock i_clk_25MHz posedge
(declare-fun |$paramod/timer_1us/PERIOD=100000#2| (|$paramod/timer_1us/PERIOD=100000_s|) Bool) ; \i_clk_25MHz
(define-fun |$paramod/timer_1us/PERIOD=100000_n i_clk_25MHz| ((state |$paramod/timer_1us/PERIOD=100000_s|)) Bool (|$paramod/timer_1us/PERIOD=100000#2| state))
; yosys-smt2-register count 32
; yosys-smt2-wire count 32
(declare-fun |$paramod/timer_1us/PERIOD=100000#3| (|$paramod/timer_1us/PERIOD=100000_s|) (_ BitVec 32)) ; \count
(define-fun |$paramod/timer_1us/PERIOD=100000_n count| ((state |$paramod/timer_1us/PERIOD=100000_s|)) (_ BitVec 32) (|$paramod/timer_1us/PERIOD=100000#3| state))
(define-fun |$paramod/timer_1us/PERIOD=100000#4| ((state |$paramod/timer_1us/PERIOD=100000_s|)) (_ BitVec 32) (bvadd (|$paramod/timer_1us/PERIOD=100000#3| state) #b00000000000000000000000000000001)) ; $add$timer_1us.v:31$142_Y
(define-fun |$paramod/timer_1us/PERIOD=100000#5| ((state |$paramod/timer_1us/PERIOD=100000_s|)) Bool (= (|$paramod/timer_1us/PERIOD=100000#3| state) #b00000000001101101110111001111111)) ; $eq$timer_1us.v:26$141_Y
(define-fun |$paramod/timer_1us/PERIOD=100000#6| ((state |$paramod/timer_1us/PERIOD=100000_s|)) (_ BitVec 32) (ite (|$paramod/timer_1us/PERIOD=100000#5| state) #b00000000000000000000000000000000 (|$paramod/timer_1us/PERIOD=100000#4| state))) ; $procmux$153_Y
(define-fun |$paramod/timer_1us/PERIOD=100000#7| ((state |$paramod/timer_1us/PERIOD=100000_s|)) (_ BitVec 32) (ite (|$paramod/timer_1us/PERIOD=100000#1| state) (|$paramod/timer_1us/PERIOD=100000#6| state) #b00000000000000000000000000000000)) ; $0\count[31:0]
(define-fun |$paramod/timer_1us/PERIOD=100000#8| ((state |$paramod/timer_1us/PERIOD=100000_s|)) (_ BitVec 1) (ite (|$paramod/timer_1us/PERIOD=100000#5| state) #b1 #b0)) ; $procmux$159_Y
(define-fun |$paramod/timer_1us/PERIOD=100000#9| ((state |$paramod/timer_1us/PERIOD=100000_s|)) (_ BitVec 1) (ite (|$paramod/timer_1us/PERIOD=100000#1| state) (|$paramod/timer_1us/PERIOD=100000#8| state) #b0)) ; $0\o_q[0:0]
(define-fun |$paramod/timer_1us/PERIOD=100000_a| ((state |$paramod/timer_1us/PERIOD=100000_s|)) Bool true)
(define-fun |$paramod/timer_1us/PERIOD=100000_u| ((state |$paramod/timer_1us/PERIOD=100000_s|)) Bool true)
(define-fun |$paramod/timer_1us/PERIOD=100000_i| ((state |$paramod/timer_1us/PERIOD=100000_s|)) Bool (and
  (= (= ((_ extract 0 0) (|$paramod/timer_1us/PERIOD=100000#0| state)) #b1) false) ; o_q
  (= (|$paramod/timer_1us/PERIOD=100000#3| state) #b00000000000000000000000000000000) ; count
))
(define-fun |$paramod/timer_1us/PERIOD=100000_h| ((state |$paramod/timer_1us/PERIOD=100000_s|)) Bool true)
(define-fun |$paramod/timer_1us/PERIOD=100000_t| ((state |$paramod/timer_1us/PERIOD=100000_s|) (next_state |$paramod/timer_1us/PERIOD=100000_s|)) Bool (and
  (= (|$paramod/timer_1us/PERIOD=100000#7| state) (|$paramod/timer_1us/PERIOD=100000#3| next_state)) ; $procdff$937 \count
  (= (|$paramod/timer_1us/PERIOD=100000#9| state) (|$paramod/timer_1us/PERIOD=100000#0| next_state)) ; $procdff$936 \o_q
)) ; end of module $paramod/timer_1us/PERIOD=100000
; yosys-smt2-module invaders
(declare-sort |invaders_s| 0)
(declare-fun |invaders_is| (|invaders_s|) Bool)
; yosys-smt2-wire tick 1
; yosys-smt2-cell $paramod/timer_1us/PERIOD=100000 speed_timer1
(declare-fun |invaders#0| (|invaders_s|) Bool) ; \tick
(declare-fun |invaders_h speed_timer1| (|invaders_s|) |$paramod/timer_1us/PERIOD=100000_s|)
(define-fun |invaders_n tick| ((state |invaders_s|)) Bool (|invaders#0| state))
; yosys-smt2-output o_invaders_row 4
; yosys-smt2-register o_invaders_row 4
; yosys-smt2-wire o_invaders_row 4
(declare-fun |invaders#1| (|invaders_s|) (_ BitVec 4)) ; \o_invaders_row
(define-fun |invaders_n o_invaders_row| ((state |invaders_s|)) (_ BitVec 4) (|invaders#1| state))
; yosys-smt2-output o_invaders_array 20
; yosys-smt2-register o_invaders_array 20
; yosys-smt2-wire o_invaders_array 20
(declare-fun |invaders#2| (|invaders_s|) (_ BitVec 20)) ; \o_invaders_array
(define-fun |invaders_n o_invaders_array| ((state |invaders_s|)) (_ BitVec 20) (|invaders#2| state))
; yosys-smt2-output o_hit 1
; yosys-smt2-register o_hit 1
; yosys-smt2-wire o_hit 1
(declare-fun |invaders#3| (|invaders_s|) (_ BitVec 1)) ; \o_hit
(define-fun |invaders_n o_hit| ((state |invaders_s|)) Bool (= ((_ extract 0 0) (|invaders#3| state)) #b1))
; yosys-smt2-input i_reset 1
; yosys-smt2-wire i_reset 1
(declare-fun |invaders#4| (|invaders_s|) Bool) ; \i_reset
(define-fun |invaders_n i_reset| ((state |invaders_s|)) Bool (|invaders#4| state))
; yosys-smt2-input i_clk_25MHz 1
; yosys-smt2-wire i_clk_25MHz 1
; yosys-smt2-clock i_clk_25MHz posedge
(declare-fun |invaders#5| (|invaders_s|) Bool) ; \i_clk_25MHz
(define-fun |invaders_n i_clk_25MHz| ((state |invaders_s|)) Bool (|invaders#5| state))
; yosys-smt2-input i_bullet_y 4
; yosys-smt2-wire i_bullet_y 4
(declare-fun |invaders#6| (|invaders_s|) (_ BitVec 4)) ; \i_bullet_y
(define-fun |invaders_n i_bullet_y| ((state |invaders_s|)) (_ BitVec 4) (|invaders#6| state))
; yosys-smt2-input i_bullet_x 5
; yosys-smt2-wire i_bullet_x 5
(declare-fun |invaders#7| (|invaders_s|) (_ BitVec 5)) ; \i_bullet_x
(define-fun |invaders_n i_bullet_x| ((state |invaders_s|)) (_ BitVec 5) (|invaders#7| state))
; yosys-smt2-register direction 1
; yosys-smt2-wire direction 1
(declare-fun |invaders#8| (|invaders_s|) (_ BitVec 1)) ; \direction
(define-fun |invaders_n direction| ((state |invaders_s|)) Bool (= ((_ extract 0 0) (|invaders#8| state)) #b1))
(define-fun |invaders#9| ((state |invaders_s|)) (_ BitVec 1) (ite (= ((_ extract 0 0) (|invaders#2| state)) #b1) #b0 #b1)) ; $procmux$862_Y
(define-fun |invaders#10| ((state |invaders_s|)) (_ BitVec 1) (ite (= ((_ extract 0 0) (|invaders#8| state)) #b1) (|invaders#9| state) #b0)) ; $procmux$864_Y
(define-fun |invaders#11| ((state |invaders_s|)) (_ BitVec 1) (ite (|invaders#0| state) (|invaders#10| state) (|invaders#8| state))) ; $procmux$866_Y
(define-fun |invaders#12| ((state |invaders_s|)) Bool (= (|invaders#1| state) #b1110)) ; $0$formal$invaders.v:99$32_CHECK[0:0]$81
(define-fun |invaders#13| ((state |invaders_s|)) (_ BitVec 1) (ite (|invaders#12| state) (|invaders#8| state) (|invaders#11| state))) ; $procmux$869_Y
(define-fun |invaders#14| ((state |invaders_s|)) (_ BitVec 5) (bvadd (concat #b0 (|invaders#1| state)) #b00001)) ; $add$invaders.v:45$37_Y
(define-fun |invaders#15| ((state |invaders_s|)) Bool (= (concat #b0 (|invaders#6| state)) (|invaders#14| state))) ; $eq$invaders.v:45$38_Y
(define-fun |invaders#16| ((state |invaders_s|)) (_ BitVec 1) ((_ extract 0 0) (bvlshr (|invaders#2| state) (concat #b000000000000000 (|invaders#7| state))))) ; $eq$invaders.v:45$40_Y
(define-fun |invaders#17| ((state |invaders_s|)) Bool (and (or  (|invaders#15| state) false) (or  (= ((_ extract 0 0) (|invaders#16| state)) #b1) false))) ; $logic_and$invaders.v:45$41_Y
(define-fun |invaders#18| ((state |invaders_s|)) (_ BitVec 1) (ite (|invaders#17| state) (|invaders#8| state) (|invaders#13| state))) ; $procmux$872_Y
(define-fun |invaders#19| ((state |invaders_s|)) (_ BitVec 1) (ite (|invaders#4| state) #b0 (|invaders#18| state))) ; $0\direction[0:0]
(define-fun |invaders#20| ((state |invaders_s|)) (_ BitVec 1) (ite (= ((_ extract 0 0) (|invaders#8| state)) #b1) (|invaders#3| state) #b0)) ; $procmux$923_Y
(define-fun |invaders#21| ((state |invaders_s|)) (_ BitVec 1) (ite (|invaders#0| state) (|invaders#20| state) #b0)) ; $procmux$925_Y
(define-fun |invaders#22| ((state |invaders_s|)) (_ BitVec 1) (ite (|invaders#12| state) #b0 (|invaders#21| state))) ; $procmux$928_Y
(define-fun |invaders#23| ((state |invaders_s|)) (_ BitVec 1) (ite (|invaders#17| state) #b1 (|invaders#22| state))) ; $procmux$931_Y
(define-fun |invaders#24| ((state |invaders_s|)) (_ BitVec 1) (ite (|invaders#4| state) #b0 (|invaders#23| state))) ; $0\o_hit[0:0]
(define-fun |invaders#25| ((state |invaders_s|)) (_ BitVec 1) (ite (= ((_ extract 0 0) (|invaders#2| state)) #b1) #b1 ((_ extract 1 1) (|invaders#2| state)))) ; $procmux$678_Y
(define-fun |invaders#26| ((state |invaders_s|)) (_ BitVec 1) (ite (= ((_ extract 0 0) (|invaders#8| state)) #b1) (|invaders#25| state) ((_ extract 0 0) (|invaders#2| state)))) ; $procmux$680_Y
(define-fun |invaders#27| ((state |invaders_s|)) (_ BitVec 1) (ite (|invaders#0| state) (|invaders#26| state) ((_ extract 0 0) (|invaders#2| state)))) ; $procmux$682_Y
(define-fun |invaders#28| ((state |invaders_s|)) (_ BitVec 1) (ite (|invaders#12| state) ((_ extract 0 0) (|invaders#2| state)) (|invaders#27| state))) ; $procmux$685_Y
(define-fun |invaders#29| ((state |invaders_s|)) Bool (not (or  (= ((_ extract 0 0) (|invaders#7| state)) #b1) (= ((_ extract 1 1) (|invaders#7| state)) #b1) (= ((_ extract 2 2) (|invaders#7| state)) #b1) (= ((_ extract 3 3) (|invaders#7| state)) #b1) (= ((_ extract 4 4) (|invaders#7| state)) #b1)))) ; $procmux$708_CMP
(define-fun |invaders#30| ((state |invaders_s|)) (_ BitVec 1) (ite (|invaders#29| state) #b0 ((_ extract 0 0) (|invaders#2| state)))) ; $procmux$707_Y
(define-fun |invaders#31| ((state |invaders_s|)) (_ BitVec 1) (ite (|invaders#17| state) (|invaders#30| state) (|invaders#28| state))) ; $procmux$709_Y
(define-fun |invaders#32| ((state |invaders_s|)) (_ BitVec 1) (ite (|invaders#4| state) #b1 (|invaders#31| state))) ; $0\o_invaders_array[19:0] [0]
(define-fun |invaders#33| ((state |invaders_s|)) (_ BitVec 1) (ite (= ((_ extract 0 0) (|invaders#2| state)) #b1) ((_ extract 1 1) (|invaders#2| state)) ((_ extract 2 2) (|invaders#2| state)))) ; $procmux$635_Y
(define-fun |invaders#34| ((state |invaders_s|)) (_ BitVec 1) (ite (= ((_ extract 0 0) (|invaders#8| state)) #b1) (|invaders#33| state) ((_ extract 1 1) (|invaders#2| state)))) ; $procmux$637_Y
(define-fun |invaders#35| ((state |invaders_s|)) (_ BitVec 1) (ite (|invaders#0| state) (|invaders#34| state) ((_ extract 1 1) (|invaders#2| state)))) ; $procmux$639_Y
(define-fun |invaders#36| ((state |invaders_s|)) (_ BitVec 1) (ite (|invaders#12| state) ((_ extract 1 1) (|invaders#2| state)) (|invaders#35| state))) ; $procmux$642_Y
(define-fun |invaders#37| ((state |invaders_s|)) Bool (= (|invaders#7| state) #b00001)) ; $procmux$664_CMP
(define-fun |invaders#38| ((state |invaders_s|)) (_ BitVec 1) (ite (|invaders#37| state) #b0 ((_ extract 1 1) (|invaders#2| state)))) ; $procmux$663_Y
(define-fun |invaders#39| ((state |invaders_s|)) (_ BitVec 1) (ite (|invaders#17| state) (|invaders#38| state) (|invaders#36| state))) ; $procmux$665_Y
(define-fun |invaders#40| ((state |invaders_s|)) (_ BitVec 1) (ite (|invaders#4| state) #b1 (|invaders#39| state))) ; $0\o_invaders_array[19:0] [1]
(define-fun |invaders#41| ((state |invaders_s|)) (_ BitVec 1) (ite (= ((_ extract 0 0) (|invaders#2| state)) #b1) ((_ extract 2 2) (|invaders#2| state)) ((_ extract 3 3) (|invaders#2| state)))) ; $procmux$593_Y
(define-fun |invaders#42| ((state |invaders_s|)) (_ BitVec 1) (ite (= ((_ extract 0 0) (|invaders#8| state)) #b1) (|invaders#41| state) ((_ extract 2 2) (|invaders#2| state)))) ; $procmux$595_Y
(define-fun |invaders#43| ((state |invaders_s|)) (_ BitVec 1) (ite (|invaders#0| state) (|invaders#42| state) ((_ extract 2 2) (|invaders#2| state)))) ; $procmux$597_Y
(define-fun |invaders#44| ((state |invaders_s|)) (_ BitVec 1) (ite (|invaders#12| state) ((_ extract 2 2) (|invaders#2| state)) (|invaders#43| state))) ; $procmux$600_Y
(define-fun |invaders#45| ((state |invaders_s|)) Bool (= (|invaders#7| state) #b00010)) ; $procmux$621_CMP
(define-fun |invaders#46| ((state |invaders_s|)) (_ BitVec 1) (ite (|invaders#45| state) #b0 ((_ extract 2 2) (|invaders#2| state)))) ; $procmux$620_Y
(define-fun |invaders#47| ((state |invaders_s|)) (_ BitVec 1) (ite (|invaders#17| state) (|invaders#46| state) (|invaders#44| state))) ; $procmux$622_Y
(define-fun |invaders#48| ((state |invaders_s|)) (_ BitVec 1) (ite (|invaders#4| state) #b1 (|invaders#47| state))) ; $0\o_invaders_array[19:0] [2]
(define-fun |invaders#49| ((state |invaders_s|)) (_ BitVec 1) (ite (= ((_ extract 0 0) (|invaders#2| state)) #b1) ((_ extract 3 3) (|invaders#2| state)) ((_ extract 4 4) (|invaders#2| state)))) ; $procmux$552_Y
(define-fun |invaders#50| ((state |invaders_s|)) (_ BitVec 1) (ite (= ((_ extract 0 0) (|invaders#8| state)) #b1) (|invaders#49| state) ((_ extract 3 3) (|invaders#2| state)))) ; $procmux$554_Y
(define-fun |invaders#51| ((state |invaders_s|)) (_ BitVec 1) (ite (|invaders#0| state) (|invaders#50| state) ((_ extract 3 3) (|invaders#2| state)))) ; $procmux$556_Y
(define-fun |invaders#52| ((state |invaders_s|)) (_ BitVec 1) (ite (|invaders#12| state) ((_ extract 3 3) (|invaders#2| state)) (|invaders#51| state))) ; $procmux$559_Y
(define-fun |invaders#53| ((state |invaders_s|)) Bool (= (|invaders#7| state) #b00011)) ; $procmux$579_CMP
(define-fun |invaders#54| ((state |invaders_s|)) (_ BitVec 1) (ite (|invaders#53| state) #b0 ((_ extract 3 3) (|invaders#2| state)))) ; $procmux$578_Y
(define-fun |invaders#55| ((state |invaders_s|)) (_ BitVec 1) (ite (|invaders#17| state) (|invaders#54| state) (|invaders#52| state))) ; $procmux$580_Y
(define-fun |invaders#56| ((state |invaders_s|)) (_ BitVec 1) (ite (|invaders#4| state) #b1 (|invaders#55| state))) ; $0\o_invaders_array[19:0] [3]
(define-fun |invaders#57| ((state |invaders_s|)) (_ BitVec 1) (ite (= ((_ extract 0 0) (|invaders#2| state)) #b1) ((_ extract 4 4) (|invaders#2| state)) ((_ extract 5 5) (|invaders#2| state)))) ; $procmux$512_Y
(define-fun |invaders#58| ((state |invaders_s|)) (_ BitVec 1) (ite (= ((_ extract 0 0) (|invaders#8| state)) #b1) (|invaders#57| state) ((_ extract 4 4) (|invaders#2| state)))) ; $procmux$514_Y
(define-fun |invaders#59| ((state |invaders_s|)) (_ BitVec 1) (ite (|invaders#0| state) (|invaders#58| state) ((_ extract 4 4) (|invaders#2| state)))) ; $procmux$516_Y
(define-fun |invaders#60| ((state |invaders_s|)) (_ BitVec 1) (ite (|invaders#12| state) ((_ extract 4 4) (|invaders#2| state)) (|invaders#59| state))) ; $procmux$519_Y
(define-fun |invaders#61| ((state |invaders_s|)) Bool (= (|invaders#7| state) #b00100)) ; $procmux$538_CMP
(define-fun |invaders#62| ((state |invaders_s|)) (_ BitVec 1) (ite (|invaders#61| state) #b0 ((_ extract 4 4) (|invaders#2| state)))) ; $procmux$537_Y
(define-fun |invaders#63| ((state |invaders_s|)) (_ BitVec 1) (ite (|invaders#17| state) (|invaders#62| state) (|invaders#60| state))) ; $procmux$539_Y
(define-fun |invaders#64| ((state |invaders_s|)) (_ BitVec 1) (ite (|invaders#4| state) #b1 (|invaders#63| state))) ; $0\o_invaders_array[19:0] [4]
(define-fun |invaders#65| ((state |invaders_s|)) (_ BitVec 1) (ite (= ((_ extract 0 0) (|invaders#2| state)) #b1) ((_ extract 5 5) (|invaders#2| state)) ((_ extract 6 6) (|invaders#2| state)))) ; $procmux$473_Y
(define-fun |invaders#66| ((state |invaders_s|)) (_ BitVec 1) (ite (= ((_ extract 0 0) (|invaders#8| state)) #b1) (|invaders#65| state) ((_ extract 5 5) (|invaders#2| state)))) ; $procmux$475_Y
(define-fun |invaders#67| ((state |invaders_s|)) (_ BitVec 1) (ite (|invaders#0| state) (|invaders#66| state) ((_ extract 5 5) (|invaders#2| state)))) ; $procmux$477_Y
(define-fun |invaders#68| ((state |invaders_s|)) (_ BitVec 1) (ite (|invaders#12| state) ((_ extract 5 5) (|invaders#2| state)) (|invaders#67| state))) ; $procmux$480_Y
(define-fun |invaders#69| ((state |invaders_s|)) Bool (= (|invaders#7| state) #b00101)) ; $procmux$498_CMP
(define-fun |invaders#70| ((state |invaders_s|)) (_ BitVec 1) (ite (|invaders#69| state) #b0 ((_ extract 5 5) (|invaders#2| state)))) ; $procmux$497_Y
(define-fun |invaders#71| ((state |invaders_s|)) (_ BitVec 1) (ite (|invaders#17| state) (|invaders#70| state) (|invaders#68| state))) ; $procmux$499_Y
(define-fun |invaders#72| ((state |invaders_s|)) (_ BitVec 1) (ite (|invaders#4| state) #b1 (|invaders#71| state))) ; $0\o_invaders_array[19:0] [5]
(define-fun |invaders#73| ((state |invaders_s|)) (_ BitVec 1) (ite (= ((_ extract 0 0) (|invaders#2| state)) #b1) ((_ extract 6 6) (|invaders#2| state)) ((_ extract 7 7) (|invaders#2| state)))) ; $procmux$435_Y
(define-fun |invaders#74| ((state |invaders_s|)) (_ BitVec 1) (ite (= ((_ extract 0 0) (|invaders#8| state)) #b1) (|invaders#73| state) ((_ extract 6 6) (|invaders#2| state)))) ; $procmux$437_Y
(define-fun |invaders#75| ((state |invaders_s|)) (_ BitVec 1) (ite (|invaders#0| state) (|invaders#74| state) ((_ extract 6 6) (|invaders#2| state)))) ; $procmux$439_Y
(define-fun |invaders#76| ((state |invaders_s|)) (_ BitVec 1) (ite (|invaders#12| state) ((_ extract 6 6) (|invaders#2| state)) (|invaders#75| state))) ; $procmux$442_Y
(define-fun |invaders#77| ((state |invaders_s|)) Bool (= (|invaders#7| state) #b00110)) ; $procmux$459_CMP
(define-fun |invaders#78| ((state |invaders_s|)) (_ BitVec 1) (ite (|invaders#77| state) #b0 ((_ extract 6 6) (|invaders#2| state)))) ; $procmux$458_Y
(define-fun |invaders#79| ((state |invaders_s|)) (_ BitVec 1) (ite (|invaders#17| state) (|invaders#78| state) (|invaders#76| state))) ; $procmux$460_Y
(define-fun |invaders#80| ((state |invaders_s|)) (_ BitVec 1) (ite (|invaders#4| state) #b1 (|invaders#79| state))) ; $0\o_invaders_array[19:0] [6]
(define-fun |invaders#81| ((state |invaders_s|)) (_ BitVec 1) (ite (= ((_ extract 0 0) (|invaders#2| state)) #b1) ((_ extract 7 7) (|invaders#2| state)) ((_ extract 8 8) (|invaders#2| state)))) ; $procmux$398_Y
(define-fun |invaders#82| ((state |invaders_s|)) (_ BitVec 1) (ite (= ((_ extract 0 0) (|invaders#8| state)) #b1) (|invaders#81| state) ((_ extract 7 7) (|invaders#2| state)))) ; $procmux$400_Y
(define-fun |invaders#83| ((state |invaders_s|)) (_ BitVec 1) (ite (|invaders#0| state) (|invaders#82| state) ((_ extract 7 7) (|invaders#2| state)))) ; $procmux$402_Y
(define-fun |invaders#84| ((state |invaders_s|)) (_ BitVec 1) (ite (|invaders#12| state) ((_ extract 7 7) (|invaders#2| state)) (|invaders#83| state))) ; $procmux$405_Y
(define-fun |invaders#85| ((state |invaders_s|)) Bool (= (|invaders#7| state) #b00111)) ; $procmux$421_CMP
(define-fun |invaders#86| ((state |invaders_s|)) (_ BitVec 1) (ite (|invaders#85| state) #b0 ((_ extract 7 7) (|invaders#2| state)))) ; $procmux$420_Y
(define-fun |invaders#87| ((state |invaders_s|)) (_ BitVec 1) (ite (|invaders#17| state) (|invaders#86| state) (|invaders#84| state))) ; $procmux$422_Y
(define-fun |invaders#88| ((state |invaders_s|)) (_ BitVec 1) (ite (|invaders#4| state) #b1 (|invaders#87| state))) ; $0\o_invaders_array[19:0] [7]
(define-fun |invaders#89| ((state |invaders_s|)) (_ BitVec 1) (ite (= ((_ extract 0 0) (|invaders#2| state)) #b1) ((_ extract 8 8) (|invaders#2| state)) ((_ extract 9 9) (|invaders#2| state)))) ; $procmux$362_Y
(define-fun |invaders#90| ((state |invaders_s|)) (_ BitVec 1) (ite (= ((_ extract 0 0) (|invaders#8| state)) #b1) (|invaders#89| state) ((_ extract 8 8) (|invaders#2| state)))) ; $procmux$364_Y
(define-fun |invaders#91| ((state |invaders_s|)) (_ BitVec 1) (ite (|invaders#0| state) (|invaders#90| state) ((_ extract 8 8) (|invaders#2| state)))) ; $procmux$366_Y
(define-fun |invaders#92| ((state |invaders_s|)) (_ BitVec 1) (ite (|invaders#12| state) ((_ extract 8 8) (|invaders#2| state)) (|invaders#91| state))) ; $procmux$369_Y
(define-fun |invaders#93| ((state |invaders_s|)) Bool (= (|invaders#7| state) #b01000)) ; $procmux$384_CMP
(define-fun |invaders#94| ((state |invaders_s|)) (_ BitVec 1) (ite (|invaders#93| state) #b0 ((_ extract 8 8) (|invaders#2| state)))) ; $procmux$383_Y
(define-fun |invaders#95| ((state |invaders_s|)) (_ BitVec 1) (ite (|invaders#17| state) (|invaders#94| state) (|invaders#92| state))) ; $procmux$385_Y
(define-fun |invaders#96| ((state |invaders_s|)) (_ BitVec 1) (ite (|invaders#4| state) #b1 (|invaders#95| state))) ; $0\o_invaders_array[19:0] [8]
(define-fun |invaders#97| ((state |invaders_s|)) (_ BitVec 1) (ite (= ((_ extract 0 0) (|invaders#2| state)) #b1) ((_ extract 9 9) (|invaders#2| state)) ((_ extract 10 10) (|invaders#2| state)))) ; $procmux$327_Y
(define-fun |invaders#98| ((state |invaders_s|)) (_ BitVec 1) (ite (= ((_ extract 0 0) (|invaders#8| state)) #b1) (|invaders#97| state) ((_ extract 9 9) (|invaders#2| state)))) ; $procmux$329_Y
(define-fun |invaders#99| ((state |invaders_s|)) (_ BitVec 1) (ite (|invaders#0| state) (|invaders#98| state) ((_ extract 9 9) (|invaders#2| state)))) ; $procmux$331_Y
(define-fun |invaders#100| ((state |invaders_s|)) (_ BitVec 1) (ite (|invaders#12| state) ((_ extract 9 9) (|invaders#2| state)) (|invaders#99| state))) ; $procmux$334_Y
(define-fun |invaders#101| ((state |invaders_s|)) Bool (= (|invaders#7| state) #b01001)) ; $procmux$348_CMP
(define-fun |invaders#102| ((state |invaders_s|)) (_ BitVec 1) (ite (|invaders#101| state) #b0 ((_ extract 9 9) (|invaders#2| state)))) ; $procmux$347_Y
(define-fun |invaders#103| ((state |invaders_s|)) (_ BitVec 1) (ite (|invaders#17| state) (|invaders#102| state) (|invaders#100| state))) ; $procmux$349_Y
(define-fun |invaders#104| ((state |invaders_s|)) (_ BitVec 1) (ite (|invaders#4| state) #b0 (|invaders#103| state))) ; $0\o_invaders_array[19:0] [9]
(define-fun |invaders#105| ((state |invaders_s|)) (_ BitVec 1) (ite (= ((_ extract 0 0) (|invaders#2| state)) #b1) ((_ extract 10 10) (|invaders#2| state)) ((_ extract 11 11) (|invaders#2| state)))) ; $procmux$293_Y
(define-fun |invaders#106| ((state |invaders_s|)) (_ BitVec 1) (ite (= ((_ extract 0 0) (|invaders#8| state)) #b1) (|invaders#105| state) ((_ extract 10 10) (|invaders#2| state)))) ; $procmux$295_Y
(define-fun |invaders#107| ((state |invaders_s|)) (_ BitVec 1) (ite (|invaders#0| state) (|invaders#106| state) ((_ extract 10 10) (|invaders#2| state)))) ; $procmux$297_Y
(define-fun |invaders#108| ((state |invaders_s|)) (_ BitVec 1) (ite (|invaders#12| state) ((_ extract 10 10) (|invaders#2| state)) (|invaders#107| state))) ; $procmux$300_Y
(define-fun |invaders#109| ((state |invaders_s|)) Bool (= (|invaders#7| state) #b01010)) ; $procmux$313_CMP
(define-fun |invaders#110| ((state |invaders_s|)) (_ BitVec 1) (ite (|invaders#109| state) #b0 ((_ extract 10 10) (|invaders#2| state)))) ; $procmux$312_Y
(define-fun |invaders#111| ((state |invaders_s|)) (_ BitVec 1) (ite (|invaders#17| state) (|invaders#110| state) (|invaders#108| state))) ; $procmux$314_Y
(define-fun |invaders#112| ((state |invaders_s|)) (_ BitVec 1) (ite (|invaders#4| state) #b0 (|invaders#111| state))) ; $0\o_invaders_array[19:0] [10]
(define-fun |invaders#113| ((state |invaders_s|)) (_ BitVec 1) (ite (= ((_ extract 0 0) (|invaders#2| state)) #b1) ((_ extract 11 11) (|invaders#2| state)) ((_ extract 12 12) (|invaders#2| state)))) ; $procmux$260_Y
(define-fun |invaders#114| ((state |invaders_s|)) (_ BitVec 1) (ite (= ((_ extract 0 0) (|invaders#8| state)) #b1) (|invaders#113| state) ((_ extract 11 11) (|invaders#2| state)))) ; $procmux$262_Y
(define-fun |invaders#115| ((state |invaders_s|)) (_ BitVec 1) (ite (|invaders#0| state) (|invaders#114| state) ((_ extract 11 11) (|invaders#2| state)))) ; $procmux$264_Y
(define-fun |invaders#116| ((state |invaders_s|)) (_ BitVec 1) (ite (|invaders#12| state) ((_ extract 11 11) (|invaders#2| state)) (|invaders#115| state))) ; $procmux$267_Y
(define-fun |invaders#117| ((state |invaders_s|)) Bool (= (|invaders#7| state) #b01011)) ; $procmux$279_CMP
(define-fun |invaders#118| ((state |invaders_s|)) (_ BitVec 1) (ite (|invaders#117| state) #b0 ((_ extract 11 11) (|invaders#2| state)))) ; $procmux$278_Y
(define-fun |invaders#119| ((state |invaders_s|)) (_ BitVec 1) (ite (|invaders#17| state) (|invaders#118| state) (|invaders#116| state))) ; $procmux$280_Y
(define-fun |invaders#120| ((state |invaders_s|)) (_ BitVec 1) (ite (|invaders#4| state) #b0 (|invaders#119| state))) ; $0\o_invaders_array[19:0] [11]
(define-fun |invaders#121| ((state |invaders_s|)) (_ BitVec 1) (ite (= ((_ extract 0 0) (|invaders#2| state)) #b1) ((_ extract 12 12) (|invaders#2| state)) ((_ extract 13 13) (|invaders#2| state)))) ; $procmux$228_Y
(define-fun |invaders#122| ((state |invaders_s|)) (_ BitVec 1) (ite (= ((_ extract 0 0) (|invaders#8| state)) #b1) (|invaders#121| state) ((_ extract 12 12) (|invaders#2| state)))) ; $procmux$230_Y
(define-fun |invaders#123| ((state |invaders_s|)) (_ BitVec 1) (ite (|invaders#0| state) (|invaders#122| state) ((_ extract 12 12) (|invaders#2| state)))) ; $procmux$232_Y
(define-fun |invaders#124| ((state |invaders_s|)) (_ BitVec 1) (ite (|invaders#12| state) ((_ extract 12 12) (|invaders#2| state)) (|invaders#123| state))) ; $procmux$235_Y
(define-fun |invaders#125| ((state |invaders_s|)) Bool (= (|invaders#7| state) #b01100)) ; $procmux$246_CMP
(define-fun |invaders#126| ((state |invaders_s|)) (_ BitVec 1) (ite (|invaders#125| state) #b0 ((_ extract 12 12) (|invaders#2| state)))) ; $procmux$245_Y
(define-fun |invaders#127| ((state |invaders_s|)) (_ BitVec 1) (ite (|invaders#17| state) (|invaders#126| state) (|invaders#124| state))) ; $procmux$247_Y
(define-fun |invaders#128| ((state |invaders_s|)) (_ BitVec 1) (ite (|invaders#4| state) #b0 (|invaders#127| state))) ; $0\o_invaders_array[19:0] [12]
(define-fun |invaders#129| ((state |invaders_s|)) (_ BitVec 1) (ite (= ((_ extract 0 0) (|invaders#2| state)) #b1) ((_ extract 13 13) (|invaders#2| state)) ((_ extract 14 14) (|invaders#2| state)))) ; $procmux$197_Y
(define-fun |invaders#130| ((state |invaders_s|)) (_ BitVec 1) (ite (= ((_ extract 0 0) (|invaders#8| state)) #b1) (|invaders#129| state) ((_ extract 13 13) (|invaders#2| state)))) ; $procmux$199_Y
(define-fun |invaders#131| ((state |invaders_s|)) (_ BitVec 1) (ite (|invaders#0| state) (|invaders#130| state) ((_ extract 13 13) (|invaders#2| state)))) ; $procmux$201_Y
(define-fun |invaders#132| ((state |invaders_s|)) (_ BitVec 1) (ite (|invaders#12| state) ((_ extract 13 13) (|invaders#2| state)) (|invaders#131| state))) ; $procmux$204_Y
(define-fun |invaders#133| ((state |invaders_s|)) Bool (= (|invaders#7| state) #b01101)) ; $procmux$214_CMP
(define-fun |invaders#134| ((state |invaders_s|)) (_ BitVec 1) (ite (|invaders#133| state) #b0 ((_ extract 13 13) (|invaders#2| state)))) ; $procmux$213_Y
(define-fun |invaders#135| ((state |invaders_s|)) (_ BitVec 1) (ite (|invaders#17| state) (|invaders#134| state) (|invaders#132| state))) ; $procmux$215_Y
(define-fun |invaders#136| ((state |invaders_s|)) (_ BitVec 1) (ite (|invaders#4| state) #b0 (|invaders#135| state))) ; $0\o_invaders_array[19:0] [13]
(define-fun |invaders#137| ((state |invaders_s|)) (_ BitVec 1) (ite (= ((_ extract 0 0) (|invaders#2| state)) #b1) ((_ extract 14 14) (|invaders#2| state)) ((_ extract 15 15) (|invaders#2| state)))) ; $procmux$832_Y
(define-fun |invaders#138| ((state |invaders_s|)) (_ BitVec 1) (ite (= ((_ extract 0 0) (|invaders#8| state)) #b1) (|invaders#137| state) ((_ extract 14 14) (|invaders#2| state)))) ; $procmux$834_Y
(define-fun |invaders#139| ((state |invaders_s|)) (_ BitVec 1) (ite (|invaders#0| state) (|invaders#138| state) ((_ extract 14 14) (|invaders#2| state)))) ; $procmux$836_Y
(define-fun |invaders#140| ((state |invaders_s|)) (_ BitVec 1) (ite (|invaders#12| state) ((_ extract 14 14) (|invaders#2| state)) (|invaders#139| state))) ; $procmux$839_Y
(define-fun |invaders#141| ((state |invaders_s|)) Bool (= (|invaders#7| state) #b01110)) ; $procmux$848_CMP
(define-fun |invaders#142| ((state |invaders_s|)) (_ BitVec 1) (ite (|invaders#141| state) #b0 ((_ extract 14 14) (|invaders#2| state)))) ; $procmux$847_Y
(define-fun |invaders#143| ((state |invaders_s|)) (_ BitVec 1) (ite (|invaders#17| state) (|invaders#142| state) (|invaders#140| state))) ; $procmux$849_Y
(define-fun |invaders#144| ((state |invaders_s|)) (_ BitVec 1) (ite (|invaders#4| state) #b0 (|invaders#143| state))) ; $0\o_invaders_array[19:0] [14]
(define-fun |invaders#145| ((state |invaders_s|)) (_ BitVec 1) (ite (= ((_ extract 0 0) (|invaders#2| state)) #b1) ((_ extract 15 15) (|invaders#2| state)) ((_ extract 16 16) (|invaders#2| state)))) ; $procmux$803_Y
(define-fun |invaders#146| ((state |invaders_s|)) (_ BitVec 1) (ite (= ((_ extract 0 0) (|invaders#8| state)) #b1) (|invaders#145| state) ((_ extract 15 15) (|invaders#2| state)))) ; $procmux$805_Y
(define-fun |invaders#147| ((state |invaders_s|)) (_ BitVec 1) (ite (|invaders#0| state) (|invaders#146| state) ((_ extract 15 15) (|invaders#2| state)))) ; $procmux$807_Y
(define-fun |invaders#148| ((state |invaders_s|)) (_ BitVec 1) (ite (|invaders#12| state) ((_ extract 15 15) (|invaders#2| state)) (|invaders#147| state))) ; $procmux$810_Y
(define-fun |invaders#149| ((state |invaders_s|)) Bool (= (|invaders#7| state) #b01111)) ; $procmux$818_CMP
(define-fun |invaders#150| ((state |invaders_s|)) (_ BitVec 1) (ite (|invaders#149| state) #b0 ((_ extract 15 15) (|invaders#2| state)))) ; $procmux$817_Y
(define-fun |invaders#151| ((state |invaders_s|)) (_ BitVec 1) (ite (|invaders#17| state) (|invaders#150| state) (|invaders#148| state))) ; $procmux$819_Y
(define-fun |invaders#152| ((state |invaders_s|)) (_ BitVec 1) (ite (|invaders#4| state) #b0 (|invaders#151| state))) ; $0\o_invaders_array[19:0] [15]
(define-fun |invaders#153| ((state |invaders_s|)) (_ BitVec 1) (ite (= ((_ extract 0 0) (|invaders#2| state)) #b1) ((_ extract 16 16) (|invaders#2| state)) ((_ extract 17 17) (|invaders#2| state)))) ; $procmux$775_Y
(define-fun |invaders#154| ((state |invaders_s|)) (_ BitVec 1) (ite (= ((_ extract 0 0) (|invaders#8| state)) #b1) (|invaders#153| state) ((_ extract 16 16) (|invaders#2| state)))) ; $procmux$777_Y
(define-fun |invaders#155| ((state |invaders_s|)) (_ BitVec 1) (ite (|invaders#0| state) (|invaders#154| state) ((_ extract 16 16) (|invaders#2| state)))) ; $procmux$779_Y
(define-fun |invaders#156| ((state |invaders_s|)) (_ BitVec 1) (ite (|invaders#12| state) ((_ extract 16 16) (|invaders#2| state)) (|invaders#155| state))) ; $procmux$782_Y
(define-fun |invaders#157| ((state |invaders_s|)) Bool (= (|invaders#7| state) #b10000)) ; $procmux$789_CMP
(define-fun |invaders#158| ((state |invaders_s|)) (_ BitVec 1) (ite (|invaders#157| state) #b0 ((_ extract 16 16) (|invaders#2| state)))) ; $procmux$788_Y
(define-fun |invaders#159| ((state |invaders_s|)) (_ BitVec 1) (ite (|invaders#17| state) (|invaders#158| state) (|invaders#156| state))) ; $procmux$790_Y
(define-fun |invaders#160| ((state |invaders_s|)) (_ BitVec 1) (ite (|invaders#4| state) #b0 (|invaders#159| state))) ; $0\o_invaders_array[19:0] [16]
(define-fun |invaders#161| ((state |invaders_s|)) (_ BitVec 1) (ite (= ((_ extract 0 0) (|invaders#2| state)) #b1) ((_ extract 17 17) (|invaders#2| state)) ((_ extract 18 18) (|invaders#2| state)))) ; $procmux$748_Y
(define-fun |invaders#162| ((state |invaders_s|)) (_ BitVec 1) (ite (= ((_ extract 0 0) (|invaders#8| state)) #b1) (|invaders#161| state) ((_ extract 17 17) (|invaders#2| state)))) ; $procmux$750_Y
(define-fun |invaders#163| ((state |invaders_s|)) (_ BitVec 1) (ite (|invaders#0| state) (|invaders#162| state) ((_ extract 17 17) (|invaders#2| state)))) ; $procmux$752_Y
(define-fun |invaders#164| ((state |invaders_s|)) (_ BitVec 1) (ite (|invaders#12| state) ((_ extract 17 17) (|invaders#2| state)) (|invaders#163| state))) ; $procmux$755_Y
(define-fun |invaders#165| ((state |invaders_s|)) Bool (= (|invaders#7| state) #b10001)) ; $procmux$761_CMP
(define-fun |invaders#166| ((state |invaders_s|)) (_ BitVec 1) (ite (|invaders#165| state) #b0 ((_ extract 17 17) (|invaders#2| state)))) ; $procmux$760_Y
(define-fun |invaders#167| ((state |invaders_s|)) (_ BitVec 1) (ite (|invaders#17| state) (|invaders#166| state) (|invaders#164| state))) ; $procmux$762_Y
(define-fun |invaders#168| ((state |invaders_s|)) (_ BitVec 1) (ite (|invaders#4| state) #b0 (|invaders#167| state))) ; $0\o_invaders_array[19:0] [17]
(define-fun |invaders#169| ((state |invaders_s|)) (_ BitVec 1) (ite (= ((_ extract 0 0) (|invaders#2| state)) #b1) ((_ extract 18 18) (|invaders#2| state)) ((_ extract 19 19) (|invaders#2| state)))) ; $procmux$722_Y
(define-fun |invaders#170| ((state |invaders_s|)) (_ BitVec 1) (ite (= ((_ extract 0 0) (|invaders#8| state)) #b1) (|invaders#169| state) ((_ extract 18 18) (|invaders#2| state)))) ; $procmux$724_Y
(define-fun |invaders#171| ((state |invaders_s|)) (_ BitVec 1) (ite (|invaders#0| state) (|invaders#170| state) ((_ extract 18 18) (|invaders#2| state)))) ; $procmux$726_Y
(define-fun |invaders#172| ((state |invaders_s|)) (_ BitVec 1) (ite (|invaders#12| state) ((_ extract 18 18) (|invaders#2| state)) (|invaders#171| state))) ; $procmux$729_Y
(define-fun |invaders#173| ((state |invaders_s|)) Bool (= (|invaders#7| state) #b10010)) ; $procmux$734_CMP
(define-fun |invaders#174| ((state |invaders_s|)) (_ BitVec 1) (ite (|invaders#173| state) #b0 ((_ extract 18 18) (|invaders#2| state)))) ; $procmux$733_Y
(define-fun |invaders#175| ((state |invaders_s|)) (_ BitVec 1) (ite (|invaders#17| state) (|invaders#174| state) (|invaders#172| state))) ; $procmux$735_Y
(define-fun |invaders#176| ((state |invaders_s|)) (_ BitVec 1) (ite (|invaders#4| state) #b0 (|invaders#175| state))) ; $0\o_invaders_array[19:0] [18]
(define-fun |invaders#177| ((state |invaders_s|)) (_ BitVec 1) (ite (= ((_ extract 0 0) (|invaders#2| state)) #b1) ((_ extract 19 19) (|invaders#2| state)) #b0)) ; $procmux$172_Y
(define-fun |invaders#178| ((state |invaders_s|)) (_ BitVec 1) (ite (= ((_ extract 0 0) (|invaders#8| state)) #b1) (|invaders#177| state) ((_ extract 19 19) (|invaders#2| state)))) ; $procmux$174_Y
(define-fun |invaders#179| ((state |invaders_s|)) (_ BitVec 1) (ite (|invaders#0| state) (|invaders#178| state) ((_ extract 19 19) (|invaders#2| state)))) ; $procmux$176_Y
(define-fun |invaders#180| ((state |invaders_s|)) (_ BitVec 1) (ite (|invaders#12| state) ((_ extract 19 19) (|invaders#2| state)) (|invaders#179| state))) ; $procmux$179_Y
(define-fun |invaders#181| ((state |invaders_s|)) Bool (= (|invaders#7| state) #b10011)) ; $procmux$183_CMP
(define-fun |invaders#182| ((state |invaders_s|)) (_ BitVec 1) (ite (|invaders#181| state) #b0 ((_ extract 19 19) (|invaders#2| state)))) ; $procmux$182_Y
(define-fun |invaders#183| ((state |invaders_s|)) (_ BitVec 1) (ite (|invaders#17| state) (|invaders#182| state) (|invaders#180| state))) ; $procmux$184_Y
(define-fun |invaders#184| ((state |invaders_s|)) (_ BitVec 1) (ite (|invaders#4| state) #b0 (|invaders#183| state))) ; $0\o_invaders_array[19:0] [19]
(define-fun |invaders#185| ((state |invaders_s|)) (_ BitVec 4) (ite (= ((_ extract 0 0) (|invaders#2| state)) #b1) ((_ extract 3 0) (|invaders#14| state)) (|invaders#1| state))) ; $procmux$885_Y
(define-fun |invaders#186| ((state |invaders_s|)) (_ BitVec 4) (ite (= ((_ extract 0 0) (|invaders#8| state)) #b1) (|invaders#185| state) (|invaders#1| state))) ; $procmux$887_Y
(define-fun |invaders#187| ((state |invaders_s|)) (_ BitVec 4) (ite (|invaders#0| state) (|invaders#186| state) (|invaders#1| state))) ; $procmux$889_Y
(define-fun |invaders#188| ((state |invaders_s|)) (_ BitVec 4) (ite (|invaders#12| state) (|invaders#1| state) (|invaders#187| state))) ; $procmux$892_Y
(define-fun |invaders#189| ((state |invaders_s|)) (_ BitVec 4) (ite (|invaders#17| state) (|invaders#1| state) (|invaders#188| state))) ; $procmux$895_Y
(define-fun |invaders#190| ((state |invaders_s|)) (_ BitVec 4) (ite (|invaders#4| state) #b0001 (|invaders#189| state))) ; $0\o_invaders_row[3:0]
(define-fun |invaders_a| ((state |invaders_s|)) Bool 
  (|$paramod/timer_1us/PERIOD=100000_a| (|invaders_h speed_timer1| state))
)
(define-fun |invaders_u| ((state |invaders_s|)) Bool 
  (|$paramod/timer_1us/PERIOD=100000_u| (|invaders_h speed_timer1| state))
)
(define-fun |invaders_i| ((state |invaders_s|)) Bool (and
  (= (|invaders#1| state) #b0001) ; o_invaders_row
  (= (|invaders#2| state) #b00000000000111111111) ; o_invaders_array
  (= (= ((_ extract 0 0) (|invaders#3| state)) #b1) false) ; o_hit
  (= (= ((_ extract 0 0) (|invaders#8| state)) #b1) false) ; direction
  (|$paramod/timer_1us/PERIOD=100000_i| (|invaders_h speed_timer1| state))
))
(define-fun |invaders_h| ((state |invaders_s|)) Bool (and
  (= (|invaders_is| state) (|$paramod/timer_1us/PERIOD=100000_is| (|invaders_h speed_timer1| state)))
  (= (|invaders#0| state) (|$paramod/timer_1us/PERIOD=100000_n o_q| (|invaders_h speed_timer1| state))) ; $paramod/timer_1us/PERIOD=100000.o_q
  (= (|invaders#4| state) (|$paramod/timer_1us/PERIOD=100000_n i_reset| (|invaders_h speed_timer1| state))) ; $paramod/timer_1us/PERIOD=100000.i_reset
  (= (|invaders#5| state) (|$paramod/timer_1us/PERIOD=100000_n i_clk_25MHz| (|invaders_h speed_timer1| state))) ; $paramod/timer_1us/PERIOD=100000.i_clk_25MHz
  (|$paramod/timer_1us/PERIOD=100000_h| (|invaders_h speed_timer1| state))
))
(define-fun |invaders_t| ((state |invaders_s|) (next_state |invaders_s|)) Bool (and
  (= (|invaders#19| state) (|invaders#8| next_state)) ; $procdff$941 \direction
  (= (|invaders#24| state) (|invaders#3| next_state)) ; $procdff$938 \o_hit
  (= (concat (|invaders#184| state) (concat (|invaders#176| state) (concat (|invaders#168| state) (concat (|invaders#160| state) (concat (|invaders#152| state) (concat (|invaders#144| state) (concat (|invaders#136| state) (concat (|invaders#128| state) (concat (|invaders#120| state) (concat (|invaders#112| state) (concat (|invaders#104| state) (concat (|invaders#96| state) (concat (|invaders#88| state) (concat (|invaders#80| state) (concat (|invaders#72| state) (concat (|invaders#64| state) (concat (|invaders#56| state) (concat (|invaders#48| state) (concat (|invaders#40| state) (|invaders#32| state)))))))))))))))))))) (|invaders#2| next_state)) ; $procdff$939 \o_invaders_array
  (= (|invaders#190| state) (|invaders#1| next_state)) ; $procdff$940 \o_invaders_row
  (|$paramod/timer_1us/PERIOD=100000_t| (|invaders_h speed_timer1| state) (|invaders_h speed_timer1| next_state))
)) ; end of module invaders
; yosys-smt2-topmod invaders
; end of yosys output
